p tw 49 51
1 2
2 13
3 4
4 5
5 6
5 11
6 7
7 8
8 9
9 10
10 11
10 41
11 12
12 14
13 24
14 15
15 16
16 17
17 18
18 19
19 20
20 21
21 22
22 23
23 25
24 35
25 26
25 34
26 27
27 28
28 29
29 30
30 31
31 32
32 33
33 43
34 36
35 45
36 37
37 38
38 39
39 40
40 43
41 42
42 43
43 44
45 46
46 47
47 48
48 49
49 3
